c Reduced graph for p06 generated by Cyril Grelier
p edge 16 38
e 1 4
e 1 5
e 1 6
e 1 8
e 1 12
e 1 15
e 2 3
e 2 7
e 2 9
e 2 10
e 2 14
e 2 16
e 3 4
e 3 7
e 3 11
e 3 14
e 4 8
e 4 11
e 4 15
e 5 6
e 5 9
e 5 12
e 5 13
e 6 10
e 6 11
e 6 12
e 7 8
e 7 13
e 7 14
e 8 13
e 8 15
e 9 10
e 9 13
e 9 16
e 10 11
e 10 16
e 12 16
e 14 15
